20	5
0	3	1	3	2
1	2	15	16
2	1	5
3	1	12
4	1	20
5	1	18
6	1	10
7	1	6
8	1	16
9	1	18
10	1	8
11	1	14
12	1	7
13	1	19
14	1	9
15	1	19
16	0
17	1	13
18	1	17
19	1	4
20	1	21
21	0
0	0	0	0	0	0	0
1	10	1	0	3	0	3
2	8	5	5	2	0	0
3	2	4	2	0	0	0
4	3	0	0	0	2	0
5	2	5	3	0	2	0
6	10	1	2	2	4	5
7	1	0	2	0	0	0
8	8	2	0	0	2	0
9	8	0	0	0	0	4
10	3	2	1	1	0	1
11	8	3	0	0	4	0
12	1	3	2	3	0	0
13	5	0	4	2	0	4
14	2	4	1	0	0	5
15	3	0	3	0	5	0
16	6	3	0	0	1	4
17	2	0	2	0	4	0
18	9	1	2	0	2	0
19	4	0	0	1	0	3
20	9	2	3	0	0	0
21	0	0	0	0	0	0
7	6	4	5	5
